n = 2;
K = 2;
L = 30;
capacity = array1d(0..1,[5, 5]);
max_r_time = array1d(0..1,[300, 300]);
load = array1d(0..5,[0, 1, 1, -1, -1, 0]);
service_time = array1d(0..5,[0, 5, 5, 5, 5, 0]);
earliest_pickup = array1d(0..5,[0, 139, 41, 139, 41, 0]);
latest_dropoff = array1d(0..5,[1440, 200, 105, 200, 105, 1440]);
t_time = array2d(0..5,0..5,[0, 2, 3, 3, 2, 0, 2, 0, 1, 1, 3, 2, 3, 1, 0, 1, 4, 3, 3, 1, 1, 0, 4, 3, 2, 3, 4, 4, 0, 2, 0, 2, 3, 3, 2, 0]);
t_cost = array3d(0..5,0..5,0..1,[0, 121, 182, 182, 121, 0, 121, 0, 60, 60, 182, 121, 182, 60, 0, 60, 243, 182, 182, 60, 60, 0, 243, 182, 121, 182, 243, 243, 0, 121, 0, 121, 182, 182, 121, 0, 0, 121, 182, 182, 121, 0, 121, 0, 60, 60, 182, 121, 182, 60, 0, 60, 243, 182, 182, 60, 60, 0, 243, 182, 121, 182, 243, 243, 0, 121, 0, 121, 182, 182, 121, 0]);
t_emission = array3d(0..5,0..5,0..1,[0, 276, 414, 414, 276, 0, 276, 0, 138, 138, 414, 276, 414, 138, 0, 138, 552, 414, 414, 138, 138, 0, 552, 414, 276, 414, 552, 552, 0, 276, 0, 276, 414, 414, 276, 0, 0, 276, 414, 414, 276, 0, 276, 0, 138, 138, 414, 276, 414, 138, 0, 138, 552, 414, 414, 138, 138, 0, 552, 414, 276, 414, 552, 552, 0, 276, 0, 276, 414, 414, 276, 0]);
